benchmarks/VRPTW/TSPTW/solution/n80w60.002.txt.solution
1 35 27 52 10 2 61 47 21 38 78 60 45 25 72 13 16 17 19 50 71 6 4 58 22 80 8 62 3 20 11 40 64 24 26 37 54 65 79 39 63 51 68 77 18 31 48 73 34 49 57 56 33 41 53 7 43 5 9 46 15 36 75 14 44 55 66 32 67 30 59 76 42 29 70 23 74 69 81 12 28 
633
